7,1,3,3,5,2,6,3,5,4,7,6,2,5,3,10,2,8,1,9,1,10;3,1,3,2,10,3,2,4,7,5,10,6,10,7,5,7,2,9,2,10;9,2,3,4,3,5,3,6,4,6,4,7,1,7,6,8,7,10,10,10;4,2,7,2,9,4,9,5,1,5,3,7,3,8,4,8,2,6,4,9,6,10;5,1,4,3,6,2,2,3,8,4,10,5,5,6,7,8,1,8,5,9,5,10;8,1,6,1,1,3,1,4,4,5,8,5,9,8,8,9,10,9;1,1,8,2,8,3,5,3,9,6,7,7,7,9,6,9,4,10;10,1,9,3,7,3,7,4,5,5,6,6,8,6,6,7,8,8,8,10;2,1,1,2,4,4,6,4,8,7,2,7,9,9;9,1,4,1,10,2,2,2,10,4,6,5,1,6,9,7,3,9,10,8,5,8,9,10;
